3739 1000
1001 1000
1001 1000
1001 1000
1001 1000
1001 1000
1001 1000
1001 1000
1001 1000
1001 1000
1001 1000
1001 1000
1001 1000
1001 1000
1001 1000
1001 1000
1001 1000
1001 1000
1001 1000
1001 1000
1001 1000
1001 1000
1001 1000
1001 1000
1001 1000
1001 1000
1001 1000
1001 1000
1001 1000
1001 1000
1001 1000
1001 1000
1001 1000
1001 1000
1001 1000
1001 1000
1001 1000
1001 1000
1001 1000
1001 1000
1001 1000
1001 1000
1001 1000
1001 1000
1001 1000
1001 1000
1001 1000
1001 1000
1001 1000
1001 1000
1001 1000
1001 1000
1001 1000
1001 1000
1001 1000
1001 1000
1001 1000
1001 1000
1001 1000
1001 1000
1001 1000
1001 1000
1001 1000
1001 1000
1001 1000
1001 1000
1001 1000
1001 1000
1001 1000
1001 1000
1001 1000
1001 1000
1001 1000
1001 1000
1001 1000
1001 1000
1001 1000
1001 1000
1001 1000
1001 1000
1001 1000
1001 1000
1001 1000
1001 1000
1001 1000
1001 1000
1001 1000
1001 1000
1001 1000
1001 1000
1001 1000
1001 1000
1001 1000
1001 1000
1001 1000
1001 1000
1001 1000
1001 1000
1001 1000
1001 1000
1001 1000
1001 1000
1001 1000
1001 1000
1001 1000
1001 1000
1001 1000
1001 1000
1001 1000
1001 1000
1001 1000
1001 1000
1001 1000
1001 1000
1001 1000
1001 1000
1001 1000
1001 1000
1001 1000
1001 1000
1001 1000
1001 1000
1001 1000
1001 1000
1001 1000
1001 1000
1001 1000
1001 1000
1001 1000
1001 1000
1001 1000
1001 1000
1001 1000
1001 1000
1001 1000
1001 1000
1001 1000
1001 1000
1001 1000
1001 1000
1001 1000
1001 1000
1001 1000
1001 1000
1001 1000
1001 1000
1001 1000
1001 1000
1001 1000
1001 1000
1001 1000
1001 1000
1001 1000
1001 1000
1001 1000
1001 1000
1001 1000
1001 1000
1001 1000
1001 1000
1001 1000
1001 1000
1001 1000
1001 1000
1001 1000
1001 1000
1001 1000
1001 1000
1001 1000
1001 1000
1001 1000
1001 1000
1001 1000
1001 1000
1001 1000
1001 1000
1001 1000
1001 1000
1001 1000
1001 1000
1001 1000
1001 1000
1001 1000
1001 1000
1001 1000
1001 1000
1001 1000
1001 1000
1001 1000
1001 1000
1001 1000
1001 1000
1001 1000
1001 1000
1001 1000
1001 1000
1001 1000
1001 1000
1001 1000
1001 1000
1001 1000
1001 1000
1001 1000
1001 1000
1001 1000
1001 1000
1001 1000
1001 1000
1001 1000
1001 1000
1001 1000
1001 1000
1001 1000
1001 1000
1001 1000
1001 1000
1001 1000
1001 1000
1001 1000
1001 1000
1001 1000
1001 1000
1001 1000
1001 1000
1001 1000
1001 1000
1001 1000
1001 1000
1001 1000
1001 1000
1001 1000
1001 1000
1001 1000
1001 1000
1001 1000
1001 1000
1001 1000
1001 1000
1001 1000
1001 1000
1001 1000
1001 1000
1001 1000
1001 1000
1001 1000
1001 1000
1001 1000
1001 1000
1001 1000
1001 1000
1001 1000
1001 1000
1001 1000
1001 1000
1001 1000
1001 1000
1001 1000
1001 1000
1001 1000
1001 1000
1001 1000
1001 1000
1001 1000
1001 1000
1001 1000
1001 1000
1001 1000
1001 1000
1001 1000
1001 1000
1001 1000
1001 1000
1001 1000
1001 1000
1001 1000
1001 1000
1001 1000
1001 1000
1001 1000
1001 1000
1001 1000
1001 1000
1001 1000
1001 1000
1001 1000
1001 1000
1001 1000
1001 1000
1001 1000
1001 1000
1001 1000
1001 1000
1001 1000
1001 1000
1001 1000
1001 1000
1001 1000
1001 1000
1001 1000
1001 1000
1001 1000
1001 1000
1001 1000
1001 1000
1001 1000
1001 1000
1001 1000
1001 1000
1001 1000
1001 1000
1001 1000
1001 1000
1001 1000
1001 1000
1001 1000
1001 1000
1001 1000
1001 1000
1001 1000
1001 1000
1001 1000
1001 1000
1001 1000
1001 1000
1001 1000
1001 1000
1001 1000
1001 1000
1001 1000
1001 1000
1001 1000
1001 1000
1001 1000
1001 1000
1001 1000
1001 1000
1001 1000
1001 1000
1001 1000
1001 1000
1001 1000
1001 1000
1001 1000
1001 1000
1001 1000
1001 1000
1001 1000
1001 1000
1001 1000
1001 1000
1001 1000
1001 1000
1001 1000
1001 1000
1001 1000
1001 1000
1001 1000
1001 1000
1001 1000
1001 1000
1001 1000
1001 1000
1001 1000
1001 1000
1001 1000
1001 1000
1001 1000
1001 1000
1001 1000
1001 1000
1001 1000
1001 1000
1001 1000
1001 1000
1001 1000
1001 1000
1001 1000
1001 1000
1001 1000
1001 1000
1001 1000
1001 1000
1001 1000
1001 1000
1001 1000
1001 1000
1001 1000
1001 1000
1001 1000
1001 1000
1001 1000
1001 1000
1001 1000
1001 1000
1001 1000
1001 1000
1001 1000
1001 1000
1001 1000
1001 1000
1001 1000
1001 1000
1001 1000
1001 1000
1001 1000
1001 1000
1001 1000
1001 1000
1001 1000
1001 1000
1001 1000
1001 1000
1001 1000
1001 1000
1001 1000
1001 1000
1001 1000
1001 1000
1001 1000
1001 1000
1001 1000
1001 1000
1001 1000
1001 1000
1001 1000
1001 1000
1001 1000
1001 1000
1001 1000
1001 1000
1001 1000
1001 1000
1001 1000
1001 1000
1001 1000
1001 1000
1001 1000
1001 1000
1001 1000
1001 1000
1001 1000
1001 1000
1001 1000
1001 1000
1001 1000
1001 1000
1001 1000
1001 1000
1001 1000
1001 1000
1001 1000
1001 1000
1001 1000
1001 1000
1001 1000
1001 1000
1001 1000
1001 1000
1001 1000
1001 1000
1001 1000
1001 1000
1001 1000
1001 1000
1001 1000
1001 1000
1001 1000
1001 1000
1001 1000
1001 1000
1001 1000
1001 1000
1001 1000
1001 1000
1001 1000
1001 1000
1001 1000
1001 1000
1001 1000
1001 1000
1001 1000
1001 1000
1001 1000
1001 1000
1001 1000
1001 1000
1001 1000
1001 1000
1001 1000
1001 1000
1001 1000
1001 1000
1001 1000
1001 1000
1001 1000
1001 1000
1001 1000
1001 1000
1001 1000
1001 1000
1001 1000
1001 1000
1001 1000
1001 1000
1001 1000
1001 1000
1001 1000
1001 1000
1001 1000
1001 1000
1001 1000
1001 1000
1001 1000
1001 1000
1001 1000
1001 1000
1001 1000
1001 1000
1001 1000
1001 1000
1001 1000
1001 1000
1001 1000
1001 1000
1001 1000
1001 1000
1001 1000
1001 1000
1001 1000
1001 1000
1001 1000
1001 1000
1001 1000
1001 1000
1001 1000
1001 1000
1001 1000
1001 1000
1001 1000
1001 1000
1001 1000
1001 1000
1001 1000
1001 1000
1001 1000
1001 1000
1001 1000
1001 1000
1001 1000
1001 1000
1001 1000
1001 1000
1001 1000
1001 1000
1001 1000
1001 1000
1001 1000
1001 1000
1001 1000
1001 1000
1001 1000
1001 1000
1001 1000
1001 1000
1001 1000
1001 1000
1001 1000
1001 1000
1001 1000
1001 1000
1001 1000
1001 1000
1001 1000
1001 1000
1001 1000
1001 1000
1001 1000
1001 1000
1001 1000
1001 1000
1001 1000
1001 1000
1001 1000
1001 1000
1001 1000
1001 1000
1001 1000
1001 1000
1001 1000
1001 1000
1001 1000
1001 1000
1001 1000
1001 1000
1001 1000
1001 1000
1001 1000
1001 1000
1001 1000
1001 1000
1001 1000
1001 1000
1001 1000
1001 1000
1001 1000
1001 1000
1001 1000
1001 1000
1001 1000
1001 1000
1001 1000
1001 1000
1001 1000
1001 1000
1001 1000
1001 1000
1001 1000
1001 1000
1001 1000
1001 1000
1001 1000
1001 1000
1001 1000
1001 1000
1001 1000
1001 1000
1001 1000
1001 1000
1001 1000
1001 1000
1001 1000
1001 1000
1001 1000
1001 1000
1001 1000
1001 1000
1001 1000
1001 1000
1001 1000
1001 1000
1001 1000
1001 1000
1001 1000
1001 1000
1001 1000
1001 1000
1001 1000
1001 1000
1001 1000
1001 1000
1001 1000
1001 1000
1001 1000
1001 1000
1001 1000
1001 1000
1001 1000
1001 1000
1001 1000
1001 1000
1001 1000
1001 1000
1001 1000
1001 1000
1001 1000
1001 1000
1001 1000
1001 1000
1001 1000
1001 1000
1001 1000
1001 1000
1001 1000
1001 1000
1001 1000
1001 1000
1001 1000
1001 1000
1001 1000
1001 1000
1001 1000
1001 1000
1001 1000
1001 1000
1001 1000
1001 1000
1001 1000
1001 1000
1001 1000
1001 1000
1001 1000
1001 1000
1001 1000
1001 1000
1001 1000
1001 1000
1001 1000
1001 1000
1001 1000
1001 1000
1001 1000
1001 1000
1001 1000
1001 1000
1001 1000
1001 1000
1001 1000
1001 1000
1001 1000
1001 1000
1001 1000
1001 1000
1001 1000
1001 1000
1001 1000
1001 1000
1001 1000
1001 1000
1001 1000
1001 1000
1001 1000
1001 1000
1001 1000
1001 1000
1001 1000
1001 1000
1001 1000
1001 1000
1001 1000
1001 1000
1001 1000
1001 1000
1001 1000
1001 1000
1001 1000
1001 1000
1001 1000
1001 1000
1001 1000
1001 1000
1001 1000
1001 1000
1001 1000
1001 1000
1001 1000
1001 1000
1001 1000
1001 1000
1001 1000
1001 1000
1001 1000
1001 1000
1001 1000
1001 1000
1001 1000
1001 1000
1001 1000
1001 1000
1001 1000
1001 1000
1001 1000
1001 1000
1001 1000
1001 1000
1001 1000
1001 1000
1001 1000
1001 1000
1001 1000
1001 1000
1001 1000
1001 1000
1001 1000
1001 1000
1001 1000
1001 1000
1001 1000
1001 1000
1001 1000
1001 1000
1001 1000
1001 1000
1001 1000
1001 1000
1001 1000
1001 1000
1001 1000
1001 1000
1001 1000
1001 1000
1001 1000
1001 1000
1001 1000
1001 1000
1001 1000
1001 1000
1001 1000
1001 1000
1001 1000
1001 1000
1001 1000
1001 1000
1001 1000
1001 1000
1001 1000
1001 1000
1001 1000
1001 1000
1001 1000
1001 1000
1001 1000
1001 1000
1001 1000
1001 1000
1001 1000
1001 1000
1001 1000
1001 1000
1001 1000
1001 1000
1001 1000
1001 1000
1001 1000
1001 1000
1001 1000
1001 1000
1001 1000
1001 1000
1001 1000
1001 1000
1001 1000
1001 1000
1001 1000
1001 1000
1001 1000
1001 1000
1001 1000
1001 1000
1001 1000
1001 1000
1001 1000
1001 1000
1001 1000
1001 1000
1001 1000
1001 1000
1001 1000
1001 1000
1001 1000
1001 1000
1001 1000
1001 1000
1001 1000
1001 1000
1001 1000
1001 1000
1001 1000
1001 1000
1001 1000
1001 1000
1001 1000
1001 1000
1001 1000
1001 1000
1001 1000
1001 1000
1001 1000
1001 1000
1001 1000
1001 1000
1001 1000
1001 1000
1001 1000
1001 1000
1001 1000
1001 1000
1001 1000
1001 1000
1001 1000
1001 1000
1001 1000
1001 1000
1001 1000
1001 1000
1001 1000
1001 1000
1001 1000
1001 1000
1001 1000
1001 1000
1001 1000
1001 1000
1001 1000
1001 1000
1001 1000
1001 1000
1001 1000
1001 1000
1001 1000
1001 1000
1001 1000
1001 1000
1001 1000
1001 1000
1001 1000
1001 1000
1001 1000
1001 1000
1001 1000
1001 1000
1001 1000
1001 1000
1001 1000
1001 1000
1001 1000
1001 1000
1001 1000
1001 1000
1001 1000
1001 1000
1001 1000
1001 1000
1001 1000
1001 1000
1001 1000
1001 1000
1001 1000
1001 1000
1001 1000
1001 1000
1001 1000
1001 1000
1001 1000
1001 1000
1001 1000
1001 1000
1001 1000
1001 1000
1001 1000
1001 1000
1001 1000
1001 1000
1001 1000
1001 1000
1001 1000
1001 1000
1001 1000
1001 1000
1001 1000
1001 1000
1001 1000
1001 1000
1001 1000
1001 1000
1001 1000
1001 1000
1001 1000
1001 1000
1001 1000
1001 1000
1001 1000
1001 1000
1001 1000
1001 1000
1001 1000
1001 1000
1001 1000
1001 1000
1001 1000
1001 1000
1001 1000
1001 1000
1001 1000
1001 1000
1001 1000
1001 1000
1001 1000
1001 1000
1001 1000
1001 1000
1001 1000
1001 1000
1001 1000
1001 1000
1001 1000
1001 1000
1001 1000
1001 1000
1001 1000
1001 1000
1001 1000
1001 1000
1001 1000
1001 1000
1001 1000
1001 1000
1001 1000
1001 1000
1001 1000
1001 1000
1001 1000
1001 1000
1001 1000
1001 1000
1001 1000
1001 1000
1001 1000
1001 1000
1001 1000
1001 1000
1001 1000
1001 1000
1001 1000
1001 1000
1001 1000
1001 1000
1001 1000
1001 1000
1001 1000
1001 1000
1001 1000
1001 1000
1001 1000
1001 1000
1001 1000
1001 1000
1001 1000
1001 1000
1001 1000
1001 1000
1001 1000
1001 1000
1001 1000
1001 1000
1001 1000
1001 1000
1001 1000
1001 1000
1001 1000
1001 1000
1001 1000
1001 1000
1001 1000
1001 1000
1001 1000
1001 1000
1001 1000
1001 1000
1001 1000
1001 1000
1001 1000
1001 1000
1001 1000
1001 1000
1001 1000
1001 1000
1001 1000
1001 1000
1001 1000
1001 1000
1001 1000
1001 1000
1001 1000
1001 1000
1001 1000
1001 1000
1001 1000
1001 1000
1001 1000
1001 1000
1001 1000
1001 1000
1001 1000
1001 1000
1001 1000
1001 1000
1001 1000
1001 1000
1001 1000
1001 1000
1001 1000
1001 1000
1001 1000
1001 1000
1001 1000
1001 1000
1001 1000
1001 1000
1001 1000
1001 1000
1001 1000
1001 1000
1001 1000
1001 1000
1001 1000
1001 1000
1001 1000
1001 1000
1001 1000
1001 1000
1001 1000
1001 1000
1001 1000
1001 1000
1001 1000
1001 1000
1001 1000
1001 1000
1001 1000
1001 1000
1001 1000
1001 1000
1001 1000
1001 1000
1001 1000
1001 1000
1001 1000
1001 1000
1001 1000
1001 1000
1001 1000
1001 1000
1001 1000
1001 1000
1001 1000
1001 1000
1001 1000
1001 1000
1001 1000
1001 1000
1001 1000
1001 1000
1001 1000
1001 1000
1001 1000
1001 1000
1001 1000
1001 1000
1001 1000
1001 1000
1001 1000
1001 1000
1001 1000
1001 1000
1001 1000
1001 1000
1001 1000
1001 1000
1001 1000
1001 1000
1001 1000
1001 1000
1001 1000
1001 1000
1001 1000
1001 1000
1001 1000
1001 1000
1001 1000
1001 1000
1001 1000
1001 1000
1001 1000
1001 1000
1001 1000
1001 1000
1001 1000
1001 1000
1001 1000
1001 1000
1001 1000
1001 1000
1001 1000
1001 1000
1001 1000
1001 1000
1001 1000
1001 1000
1001 1000
1001 1000
1001 1000
1001 1000
1001 1000
1001 1000
1001 1000
1001 1000
1001 1000
1001 1000
1001 1000
1001 1000
1001 1000
1001 1000
1001 1000
1001 1000
1001 1000
1001 1000
1001 1000
1001 1000
1001 1000
1001 1000
1001 1000
1001 1000
1001 1000
1001 1000
1001 1000
1001 1000
1001 1000
1001 1000
1001 1000
1001 1000
1001 1000
1001 1000
1001 1000
1001 1000
1001 1000
1001 1000
1001 1000
1001 1000
1001 1000
1001 1000
1001 1000
1001 1000
1001 1000
1001 1000
1001 1000
1001 1000
1001 1000
1001 1000
1001 1000
1001 1000
1001 1000
1001 1000
1001 1000
1001 1000
1001 1000
1001 1000
1001 1000
1001 1000
1001 1000
1001 1000
1001 1000
1001 1000
1001 1000
1001 1000
1001 1000
1001 1000
1001 1000
1001 1000
1001 1000
1001 1000
1001 1000
1001 1000
1001 1000
1001 1000
1001 1000
1001 1000
1001 1000
1001 1000
1001 1000
1001 1000
1001 1000
1001 1000
1001 1000
1001 1000
1001 1000
1001 1000
1001 1000
1001 1000
1001 1000
1001 1000
1001 1000
1001 1000
1001 1000
1001 1000
1001 1000
1001 1000
1001 1000
1001 1000
1001 1000
1001 1000
1001 1000
1001 1000
1001 1000
1001 1000
1001 1000
1001 1000
1001 1000
1001 1000
1001 1000
1001 1000
1001 1000
1001 1000
1001 1000
1001 1000
1001 1000
1001 1000
1001 1000
1001 1000
1001 1000
1001 1000
1001 1000
1001 1000
1001 1000
1001 1000
1001 1000
1001 1000
1001 1000
1001 1000
1001 1000
1001 1000
1001 1000
1001 1000
1001 1000
1001 1000
1001 1000
1001 1000
1001 1000
1001 1000
1001 1000
1001 1000
1001 1000
1001 1000
1001 1000
1001 1000
1001 1000
1001 1000
1001 1000
1001 1000
1001 1000
1001 1000
1001 1000
1001 1000
1001 1000
1001 1000
1001 1000
1001 1000
1001 1000
1001 1000
1001 1000
1001 1000
1001 1000
1001 1000
1001 1000
1001 1000
1001 1000
1001 1000
1001 1000
1001 1000
1001 1000
1001 1000
1001 1000
1001 1000
1001 1000
1001 1000
1001 1000
1001 1000
1001 1000
1001 1000
1001 1000
1001 1000
1001 1000
1001 1000
1001 1000
1001 1000
1001 1000
1001 1000
1001 1000
1001 1000
1001 1000
1001 1000
1001 1000
1001 1000
1001 1000
1001 1000
1001 1000
1001 1000
1001 1000
1001 1000
1001 1000
1001 1000
1001 1000
1001 1000
1001 1000
1001 1000
1001 1000
1001 1000
1001 1000
1001 1000
1001 1000
1001 1000
1001 1000
1001 1000
1001 1000
1001 1000
1001 1000
1001 1000
1001 1000
1001 1000
1001 1000
1001 1000
1001 1000
1001 1000
1001 1000
1001 1000
1001 1000
1001 1000
1001 1000
1001 1000
1001 1000
1001 1000
1001 1000
1001 1000
1001 1000
1001 1000
1001 1000
1001 1000
1001 1000
1001 1000
1001 1000
1001 1000
1001 1000
1001 1000
1001 1000
1001 1000
1001 1000
1001 1000
1001 1000
1001 1000
1001 1000
1001 1000
1001 1000
1001 1000
1001 1000
1001 1000
1001 1000
1001 1000
1001 1000
1001 1000
1001 1000
1001 1000
1001 1000
1001 1000
1001 1000
1001 1000
1001 1000
1001 1000
1001 1000
1001 1000
1001 1000
1001 1000
1001 1000
1001 1000
1001 1000
1001 1000
1001 1000
1001 1000
1001 1000
1001 1000
1001 1000
1001 1000
1001 1000
1001 1000
1001 1000
1001 1000
1001 1000
1001 1000
1001 1000
1001 1000
1001 1000
1001 1000
1001 1000
1001 1000
1001 1000
1001 1000
1001 1000
1001 1000
1001 1000
1001 1000
1001 1000
1001 1000
1001 1000
1001 1000
1001 1000
1001 1000
1001 1000
1001 1000
1001 1000
1001 1000
1001 1000
1001 1000
1001 1000
1001 1000
1001 1000
1001 1000
1001 1000
1001 1000
1001 1000
1001 1000
1001 1000
1001 1000
1001 1000
1001 1000
1001 1000
1001 1000
1001 1000
1001 1000
1001 1000
1001 1000
1001 1000
1001 1000
1001 1000
1001 1000
1001 1000
1001 1000
1001 1000
1001 1000
1001 1000
1001 1000
1001 1000
1001 1000
1001 1000
1001 1000
1001 1000
1001 1000
1001 1000
1001 1000
1001 1000
1001 1000
1001 1000
1001 1000
1001 1000
1001 1000
1001 1000
1001 1000
1001 1000
1001 1000
1001 1000
1001 1000
1001 1000
1001 1000
1001 1000
1001 1000
1001 1000
1001 1000
1001 1000
1001 1000
1001 1000
1001 1000
1001 1000
1001 1000
1001 1000
1001 1000
1001 1000
1001 1000
1001 1000
1001 1000
1001 1000
1001 1000
1001 1000
1001 1000
1001 1000
1001 1000
1001 1000
1001 1000
1001 1000
1001 1000
1001 1000
1001 1000
1001 1000
1001 1000
1001 1000
1001 1000
1001 1000
1001 1000
1001 1000
1001 1000
1001 1000
1001 1000
1001 1000
1001 1000
1001 1000
1001 1000
1001 1000
1001 1000
1001 1000
1001 1000
1001 1000
1001 1000
1001 1000
1001 1000
1001 1000
1001 1000
1001 1000
1001 1000
1001 1000
1001 1000
1001 1000
1001 1000
1001 1000
1001 1000
1001 1000
1001 1000
1001 1000
1001 1000
1001 1000
1001 1000
1001 1000
1001 1000
1001 1000
1001 1000
1001 1000
1001 1000
1001 1000
1001 1000
1001 1000
1001 1000
1001 1000
1001 1000
1001 1000
1001 1000
1001 1000
1001 1000
1001 1000
1001 1000
1001 1000
1001 1000
1001 1000
1001 1000
1001 1000
1001 1000
1001 1000
1001 1000
1001 1000
1001 1000
1001 1000
1001 1000
1001 1000
1001 1000
1001 1000
1001 1000
1001 1000
1001 1000
1001 1000
1001 1000
1001 1000
1001 1000
1001 1000
1001 1000
1001 1000
1001 1000
1001 1000
1001 1000
1001 1000
1001 1000
1001 1000
1001 1000
1001 1000
1001 1000
1001 1000
1001 1000
1001 1000
1001 1000
1001 1000
1001 1000
1001 1000
1001 1000
1001 1000
1001 1000
1001 1000
1001 1000
1001 1000
1001 1000
1001 1000
1001 1000
1001 1000
1001 1000
1001 1000
1001 1000
1001 1000
1001 1000
1001 1000
1001 1000
1001 1000
1001 1000
1001 1000
1001 1000
1001 1000
1001 1000
1001 1000
1001 1000
1001 1000
1001 1000
1001 1000
1001 1000
1001 1000
1001 1000
1001 1000
1001 1000
1001 1000
1001 1000
1001 1000
1001 1000
1001 1000
1001 1000
1001 1000
1001 1000
1001 1000
1001 1000
1001 1000
1001 1000
1001 1000
1001 1000
1001 1000
1001 1000
1001 1000
1001 1000
1001 1000
1001 1000
1001 1000
1001 1000
1001 1000
1001 1000
1001 1000
1001 1000
1001 1000
1001 1000
1001 1000
1001 1000
1001 1000
1001 1000
1001 1000
1001 1000
1001 1000
1001 1000
1001 1000
1001 1000
1001 1000
1001 1000
1001 1000
1001 1000
1001 1000
1001 1000
1001 1000
1001 1000
1001 1000
1001 1000
1001 1000
1001 1000
1001 1000
1001 1000
1001 1000
1001 1000
1001 1000
1001 1000
1001 1000
1001 1000
1001 1000
1001 1000
1001 1000
1001 1000
1001 1000
1001 1000
1001 1000
1001 1000
1001 1000
1001 1000
1001 1000
1001 1000
1001 1000
1001 1000
1001 1000
1001 1000
1001 1000
1001 1000
1001 1000
1001 1000
1001 1000
1001 1000
1001 1000
1001 1000
1001 1000
1001 1000
1001 1000
1001 1000
1001 1000
1001 1000
1001 1000
1001 1000
1001 1000
1001 1000
1001 1000
1001 1000
1001 1000
1001 1000
1001 1000
1001 1000
1001 1000
1001 1000
1001 1000
1001 1000
1001 1000
1001 1000
1001 1000
1001 1000
1001 1000
1001 1000
1001 1000
1001 1000
1001 1000
1001 1000
1001 1000
1001 1000
1001 1000
1001 1000
1001 1000
1001 1000
1001 1000
1001 1000
1001 1000
1001 1000
1001 1000
1001 1000
1001 1000
1001 1000
1001 1000
1001 1000
1001 1000
1001 1000
1001 1000
1001 1000
1001 1000
1001 1000
1001 1000
1001 1000
1001 1000
1001 1000
1001 1000
1001 1000
1001 1000
1001 1000
1001 1000
1001 1000
1001 1000
1001 1000
1001 1000
1001 1000
1001 1000
1001 1000
1001 1000
1001 1000
1001 1000
1001 1000
1001 1000
1001 1000
1001 1000
1001 1000
1001 1000
1001 1000
1001 1000
1001 1000
1001 1000
1001 1000
1001 1000
1001 1000
1001 1000
1001 1000
1001 1000
1001 1000
1001 1000
1001 1000
1001 1000
1001 1000
1001 1000
1001 1000
1001 1000
1001 1000
1001 1000
1001 1000
1001 1000
1001 1000
1001 1000
1001 1000
1001 1000
1001 1000
1001 1000
1001 1000
1001 1000
1001 1000
1001 1000
1001 1000
1001 1000
1001 1000
1001 1000
1001 1000
1001 1000
1001 1000
1001 1000
1001 1000
1001 1000
1001 1000
1001 1000
1001 1000
1001 1000
1001 1000
1001 1000
1001 1000
1001 1000
1001 1000
1001 1000
1001 1000
1001 1000
1001 1000
1001 1000
1001 1000
1001 1000
1001 1000
1001 1000
1001 1000
1001 1000
1001 1000
1001 1000
1001 1000
1001 1000
1001 1000
1001 1000
1001 1000
1001 1000
1001 1000
1001 1000
1001 1000
1001 1000
1001 1000
1001 1000
1001 1000
1001 1000
1001 1000
1001 1000
1001 1000
1001 1000
1001 1000
1001 1000
1001 1000
1001 1000
1001 1000
1001 1000
1001 1000
1001 1000
1001 1000
1001 1000
1001 1000
1001 1000
1001 1000
1001 1000
1001 1000
1001 1000
1001 1000
1001 1000
1001 1000
1001 1000
1001 1000
1001 1000
1001 1000
1001 1000
1001 1000
1001 1000
1001 1000
1001 1000
1001 1000
1001 1000
1001 1000
1001 1000
1001 1000
1001 1000
1001 1000
1001 1000
1001 1000
1001 1000
1001 1000
1001 1000
1001 1000
1001 1000
1001 1000
1001 1000
1001 1000
1001 1000
1001 1000
1001 1000
1001 1000
1001 1000
1001 1000
1001 1000
1001 1000
1001 1000
1001 1000
1001 1000
1001 1000
1001 1000
1001 1000
1001 1000
1001 1000
1001 1000
1001 1000
1001 1000
1001 1000
1001 1000
1001 1000
1001 1000
1001 1000
1001 1000
1001 1000
1001 1000
1001 1000
1001 1000
1001 1000
1001 1000
1001 1000
1001 1000
1001 1000
1001 1000
1001 1000
1001 1000
1001 1000
1001 1000
1001 1000
1001 1000
1001 1000
1001 1000
1001 1000
1001 1000
1001 1000
1001 1000
1001 1000
1001 1000
1001 1000
1001 1000
1001 1000
1001 1000
1001 1000
1001 1000
1001 1000
1001 1000
1001 1000
1001 1000
1001 1000
1001 1000
1001 1000
1001 1000
1001 1000
1001 1000
1001 1000
1001 1000
1001 1000
1001 1000
1001 1000
1001 1000
1001 1000
1001 1000
1001 1000
1001 1000
1001 1000
1001 1000
1001 1000
1001 1000
1001 1000
1001 1000
1001 1000
1001 1000
1001 1000
1001 1000
1001 1000
1001 1000
1001 1000
1001 1000
1001 1000
1001 1000
1001 1000
1001 1000
1001 1000
1001 1000
1001 1000
1001 1000
1001 1000
1001 1000
1001 1000
1001 1000
1001 1000
1001 1000
1001 1000
1001 1000
1001 1000
1001 1000
1001 1000
1001 1000
1001 1000
1001 1000
1001 1000
1001 1000
1001 1000
1001 1000
1001 1000
1001 1000
1001 1000
1001 1000
1001 1000
1001 1000
1001 1000
1001 1000
1001 1000
1001 1000
1001 1000
1001 1000
1001 1000
1001 1000
1001 1000
1001 1000
1001 1000
1001 1000
1001 1000
1001 1000
1001 1000
1001 1000
1001 1000
1001 1000
1001 1000
1001 1000
1001 1000
1001 1000
1001 1000
1001 1000
1001 1000
1001 1000
1001 1000
1001 1000
1001 1000
1001 1000
1001 1000
1001 1000
1001 1000
1001 1000
1001 1000
1001 1000
1001 1000
1001 1000
1001 1000
1001 1000
1001 1000
1001 1000
1001 1000
1001 1000
1001 1000
1001 1000
1001 1000
1001 1000
1001 1000
1001 1000
1001 1000
1001 1000
1001 1000
1001 1000
1001 1000
1001 1000
1001 1000
1001 1000
1001 1000
1001 1000
1001 1000
1001 1000
1001 1000
1001 1000
1001 1000
1001 1000
1001 1000
1001 1000
1001 1000
1001 1000
1001 1000
1001 1000
1001 1000
1001 1000
1001 1000
1001 1000
1001 1000
1001 1000
1001 1000
1001 1000
1001 1000
1001 1000
1001 1000
1001 1000
1001 1000
1001 1000
1001 1000
1001 1000
1001 1000
1001 1000
1001 1000
1001 1000
1001 1000
1001 1000
1001 1000
1001 1000
1001 1000
1001 1000
1001 1000
1001 1000
1001 1000
1001 1000
1001 1000
1001 1000
1001 1000
1001 1000
1001 1000
1001 1000
1001 1000
1001 1000
1001 1000
1001 1000
1001 1000
1001 1000
1001 1000
1001 1000
1001 1000
1001 1000
1001 1000
1001 1000
1001 1000
1001 1000
1001 1000
1001 1000
1001 1000
1001 1000
1001 1000
1001 1000
1001 1000
1001 1000
1001 1000
1001 1000
1001 1000
1001 1000
1001 1000
1001 1000
1001 1000
1001 1000
1001 1000
1001 1000
1001 1000
1001 1000
1001 1000
1001 1000
1001 1000
1001 1000
1001 1000
1001 1000
1001 1000
1001 1000
1001 1000
1001 1000
1001 1000
1001 1000
1001 1000
1001 1000
1001 1000
1001 1000
1001 1000
1001 1000
1001 1000
1001 1000
1001 1000
1001 1000
1001 1000
1001 1000
1001 1000
1001 1000
1001 1000
1001 1000
1001 1000
1001 1000
1001 1000
1001 1000
1001 1000
1001 1000
1001 1000
1001 1000
1001 1000
1001 1000
1001 1000
1001 1000
1001 1000
1001 1000
1001 1000
1001 1000
1001 1000
1001 1000
1001 1000
1001 1000
1001 1000
1001 1000
1001 1000
1001 1000
1001 1000
1001 1000
1001 1000
1001 1000
1001 1000
1001 1000
1001 1000
1001 1000
1001 1000
1001 1000
1001 1000
1001 1000
1001 1000
1001 1000
1001 1000
1001 1000
1001 1000
1001 1000
1001 1000
1001 1000
1001 1000
1001 1000
1001 1000
1001 1000
1001 1000
1001 1000
1001 1000
1001 1000
1001 1000
1001 1000
1001 1000
1001 1000
1001 1000
1001 1000
1001 1000
1001 1000
1001 1000
1001 1000
1001 1000
1001 1000
1001 1000
1001 1000
1001 1000
1001 1000
1001 1000
1001 1000
1001 1000
1001 1000
1001 1000
1001 1000
1001 1000
1001 1000
1001 1000
1001 1000
1001 1000
1001 1000
1001 1000
1001 1000
1001 1000
1001 1000
1001 1000
1001 1000
1001 1000
1001 1000
1001 1000
1001 1000
1001 1000
1001 1000
1001 1000
1001 1000
1001 1000
1001 1000
1001 1000
1001 1000
1001 1000
1001 1000
1001 1000
1001 1000
1001 1000
1001 1000
1001 1000
1001 1000
1001 1000
1001 1000
1001 1000
1001 1000
1001 1000
1001 1000
1001 1000
1001 1000
1001 1000
1001 1000
1001 1000
1001 1000
1001 1000
1001 1000
1001 1000
1001 1000
1001 1000
1001 1000
1001 1000
1001 1000
1001 1000
1001 1000
1001 1000
1001 1000
1001 1000
1001 1000
1001 1000
1001 1000
1001 1000
1001 1000
1001 1000
1001 1000
1001 1000
1001 1000
1001 1000
1001 1000
1001 1000
1001 1000
1001 1000
1001 1000
1001 1000
1001 1000
1001 1000
1001 1000
1001 1000
1001 1000
1001 1000
1001 1000
1001 1000
1001 1000
1001 1000
1001 1000
1001 1000
1001 1000
1001 1000
1001 1000
1001 1000
1001 1000
1001 1000
1001 1000
1001 1000
1001 1000
1001 1000
1001 1000
1001 1000
1001 1000
1001 1000
1001 1000
1001 1000
1001 1000
1001 1000
1001 1000
1001 1000
1001 1000
1001 1000
1001 1000
1001 1000
1001 1000
1001 1000
1001 1000
1001 1000
1001 1000
1001 1000
1001 1000
1001 1000
1001 1000
1001 1000
1001 1000
1001 1000
1001 1000
1001 1000
1001 1000
1001 1000
1001 1000
1001 1000
1001 1000
1001 1000
1001 1000
1001 1000
1001 1000
1001 1000
1001 1000
1001 1000
1001 1000
1001 1000
1001 1000
1001 1000
1001 1000
1001 1000
1001 1000
1001 1000
1001 1000
1001 1000
1001 1000
1001 1000
1001 1000
1001 1000
1001 1000
1001 1000
1001 1000
1001 1000
1001 1000
1001 1000
1001 1000
1001 1000
1001 1000
1001 1000
1001 1000
1001 1000
1001 1000
1001 1000
1001 1000
1001 1000
1001 1000
1001 1000
1001 1000
1001 1000
1001 1000
1001 1000
1001 1000
1001 1000
1001 1000
1001 1000
1001 1000
1001 1000
1001 1000
1001 1000
1001 1000
1001 1000
1001 1000
1001 1000
1001 1000
1001 1000
1001 1000
1001 1000
1001 1000
1001 1000
1001 1000
1001 1000
1001 1000
1001 1000
1001 1000
1001 1000
1001 1000
1001 1000
1001 1000
1001 1000
1001 1000
1001 1000
1001 1000
1001 1000
1001 1000
1001 1000
1001 1000
1001 1000
1001 1000
1001 1000
1001 1000
1001 1000
1001 1000
1001 1000
1001 1000
1001 1000
1001 1000
1001 1000
1001 1000
1001 1000
1001 1000
1001 1000
1001 1000
1001 1000
1001 1000
1001 1000
1001 1000
1001 1000
1001 1000
1001 1000
1001 1000
1001 1000
1001 1000
1001 1000
1001 1000
1001 1000
1001 1000
1001 1000
1001 1000
1001 1000
1001 1000
1001 1000
1001 1000
1001 1000
1001 1000
1001 1000
1001 1000
1001 1000
1001 1000
1001 1000
1001 1000
1001 1000
1001 1000
1001 1000
1001 1000
1001 1000
1001 1000
1001 1000
1001 1000
1001 1000
1001 1000
1001 1000
1001 1000
1001 1000
1001 1000
1001 1000
1001 1000
1001 1000
1001 1000
1001 1000
1001 1000
1001 1000
1001 1000
1001 1000
1001 1000
1001 1000
1001 1000
1001 1000
1001 1000
1001 1000
1001 1000
1001 1000
1001 1000
1001 1000
1001 1000
1001 1000
1001 1000
1001 1000
1001 1000
1001 1000
1001 1000
1001 1000
1001 1000
1001 1000
1001 1000
1001 1000
1001 1000
1001 1000
1001 1000
1001 1000
1001 1000
1001 1000
1001 1000
1001 1000
1001 1000
1001 1000
1001 1000
1001 1000
1001 1000
1001 1000
1001 1000
1001 1000
1001 1000
1001 1000
1001 1000
1001 1000
1001 1000
1001 1000
1001 1000
1001 1000
1001 1000
1001 1000
1001 1000
1001 1000
1001 1000
1001 1000
1001 1000
1001 1000
1001 1000
1001 1000
1001 1000
1001 1000
1001 1000
1001 1000
1001 1000
1001 1000
1001 1000
1001 1000
1001 1000
1001 1000
1001 1000
1001 1000
1001 1000
1001 1000
1001 1000
1001 1000
1001 1000
1001 1000
1001 1000
1001 1000
1001 1000
1001 1000
1001 1000
1001 1000
1001 1000
1001 1000
1001 1000
1001 1000
1001 1000
1001 1000
1001 1000
1001 1000
1001 1000
1001 1000
1001 1000
1001 1000
1001 1000
1001 1000
1001 1000
1001 1000
1001 1000
1001 1000
1001 1000
1001 1000
1001 1000
1001 1000
1001 1000
1001 1000
1001 1000
1001 1000
1001 1000
1001 1000
1001 1000
1001 1000
1001 1000
1001 1000
1001 1000
1001 1000
1001 1000
1001 1000
1001 1000
1001 1000
1001 1000
1001 1000
1001 1000
1001 1000
1001 1000
1001 1000
1001 1000
1001 1000
1001 1000
1001 1000
1001 1000
1001 1000
1001 1000
1001 1000
1001 1000
1001 1000
1001 1000
1001 1000
1001 1000
1001 1000
1001 1000
1001 1000
1001 1000
1001 1000
1001 1000
1001 1000
1001 1000
1001 1000
1001 1000
1001 1000
1001 1000
1001 1000
1001 1000
1001 1000
1001 1000
1001 1000
1001 1000
1001 1000
1001 1000
1001 1000
1001 1000
1001 1000
1001 1000
1001 1000
1001 1000
1001 1000
1001 1000
1001 1000
1001 1000
1001 1000
1001 1000
1001 1000
1001 1000
1001 1000
1001 1000
1001 1000
1001 1000
1001 1000
1001 1000
1001 1000
1001 1000
1001 1000
1001 1000
1001 1000
1001 1000
1001 1000
1001 1000
1001 1000
1001 1000
1001 1000
1001 1000
1001 1000
1001 1000
1001 1000
1001 1000
1001 1000
1001 1000
1001 1000
1001 1000
1001 1000
1001 1000
1001 1000
1001 1000
1001 1000
1001 1000
1001 1000
1001 1000
1001 1000
1001 1000
1001 1000
1001 1000
1001 1000
1001 1000
1001 1000
1001 1000
1001 1000
1001 1000
1001 1000
1001 1000
1001 1000
1001 1000
1001 1000
1001 1000
1001 1000
1001 1000
1001 1000
1001 1000
1001 1000
1001 1000
1001 1000
1001 1000
1001 1000
1001 1000
1001 1000
1001 1000
1001 1000
1001 1000
1001 1000
1001 1000
1001 1000
1001 1000
1001 1000
1001 1000
1001 1000
1001 1000
1001 1000
1001 1000
1001 1000
1001 1000
1001 1000
1001 1000
1001 1000
1001 1000
1001 1000
1001 1000
1001 1000
1001 1000
1001 1000
1001 1000
1001 1000
1001 1000
1001 1000
1001 1000
1001 1000
1001 1000
1001 1000
1001 1000
1001 1000
1001 1000
1001 1000
1001 1000
1001 1000
1001 1000
1001 1000
1001 1000
1001 1000
1001 1000
1001 1000
1001 1000
1001 1000
1001 1000
1001 1000
1001 1000
1001 1000
1001 1000
1001 1000
1001 1000
1001 1000
1001 1000
1001 1000
1001 1000
1001 1000
1001 1000
1001 1000
1001 1000
1001 1000
1001 1000
1001 1000
1001 1000
1001 1000
1001 1000
1001 1000
1001 1000
1001 1000
1001 1000
1001 1000
1001 1000
1001 1000
1001 1000
1001 1000
1001 1000
1001 1000
1001 1000
1001 1000
1001 1000
1001 1000
1001 1000
1001 1000
1001 1000
1001 1000
1001 1000
1001 1000
1001 1000
1001 1000
1001 1000
1001 1000
1001 1000
1001 1000
1001 1000
1001 1000
1001 1000
1001 1000
1001 1000
1001 1000
1001 1000
1001 1000
1001 1000
1001 1000
1001 1000
1001 1000
1001 1000
1001 1000
1001 1000
1001 1000
1001 1000
1001 1000
1001 1000
1001 1000
1001 1000
1001 1000
1001 1000
1001 1000
1001 1000
1001 1000
1001 1000
1001 1000
1001 1000
1001 1000
1001 1000
1001 1000
1001 1000
1001 1000
1001 1000
1001 1000
1001 1000
1001 1000
1001 1000
1001 1000
1001 1000
1001 1000
1001 1000
1001 1000
1001 1000
1001 1000
1001 1000
1001 1000
1001 1000
1001 1000
1001 1000
1001 1000
1001 1000
1001 1000
1001 1000
1001 1000
1001 1000
1001 1000
1001 1000
1001 1000
1001 1000
1001 1000
1001 1000
1001 1000
1001 1000
1001 1000
1001 1000
1001 1000
1001 1000
1001 1000
1001 1000
1001 1000
1001 1000
1001 1000
1001 1000
1001 1000
1001 1000
1001 1000
1001 1000
1001 1000
1001 1000
1001 1000
1001 1000
1001 1000
1001 1000
1001 1000
1001 1000
1001 1000
1001 1000
1001 1000
1001 1000
1001 1000
1001 1000
1001 1000
1001 1000
1001 1000
1001 1000
1001 1000
1001 1000
1001 1000
1001 1000
1001 1000
1001 1000
1001 1000
1001 1000
1001 1000
1001 1000
1001 1000
1001 1000
1001 1000
1001 1000
1001 1000
1001 1000
1001 1000
1001 1000
1001 1000
1001 1000
1001 1000
1001 1000
1001 1000
1001 1000
1001 1000
1001 1000
1001 1000
1001 1000
1001 1000
1001 1000
1001 1000
1001 1000
1001 1000
1001 1000
1001 1000
1001 1000
1001 1000
1001 1000
1001 1000
1001 1000
1001 1000
1001 1000
1001 1000
1001 1000
1001 1000
1001 1000
1001 1000
1001 1000
1001 1000
1001 1000
1001 1000
1001 1000
1001 1000
1001 1000
1001 1000
1001 1000
1001 1000
1001 1000
1001 1000
1001 1000
1001 1000
1001 1000
1001 1000
1001 1000
1001 1000
1001 1000
1001 1000
1001 1000
1001 1000
1001 1000
1001 1000
1001 1000
1001 1000
1001 1000
1001 1000
1001 1000
1001 1000
1001 1000
1001 1000
1001 1000
1001 1000
1001 1000
1001 1000
1001 1000
1001 1000
1001 1000
1001 1000
1001 1000
1001 1000
1001 1000
1001 1000
1001 1000
1001 1000
1001 1000
1001 1000
1001 1000
1001 1000
1001 1000
1001 1000
1001 1000
1001 1000
1001 1000
1001 1000
1001 1000
1001 1000
1001 1000
1001 1000
1001 1000
1001 1000
1001 1000
1001 1000
1001 1000
1001 1000
1001 1000
1001 1000
1001 1000
1001 1000
1001 1000
1001 1000
1001 1000
1001 1000
1001 1000
1001 1000
1001 1000
1001 1000
1001 1000
1001 1000
1001 1000
1001 1000
1001 1000
1001 1000
1001 1000
1001 1000
1001 1000
1001 1000
1001 1000
1001 1000
1001 1000
1001 1000
1001 1000
1001 1000
1001 1000
1001 1000
1001 1000
1001 1000
1001 1000
1001 1000
1001 1000
1001 1000
1001 1000
1001 1000
1001 1000
1001 1000
1001 1000
1001 1000
1001 1000
1001 1000
1001 1000
1001 1000
1001 1000
1001 1000
1001 1000
1001 1000
1001 1000
1001 1000
1001 1000
1001 1000
1001 1000
1001 1000
1001 1000
1001 1000
1001 1000
1001 1000
1001 1000
1001 1000
1001 1000
1001 1000
1001 1000
1001 1000
1001 1000
1001 1000
1001 1000
1001 1000
1001 1000
1001 1000
1001 1000
1001 1000
1001 1000
1001 1000
1001 1000
1001 1000
1001 1000
1001 1000
1001 1000
1001 1000
1001 1000
1001 1000
1001 1000
1001 1000
1001 1000
1001 1000
1001 1000
1001 1000
1001 1000
1001 1000
1001 1000
1001 1000
1001 1000
1001 1000
1001 1000
1001 1000
1001 1000
1001 1000
1001 1000
1001 1000
1001 1000
1001 1000
1001 1000
1001 1000
1001 1000
1001 1000
1001 1000
1001 1000
1001 1000
1001 1000
1001 1000
1001 1000
1001 1000
1001 1000
1001 1000
1001 1000
1001 1000
1001 1000
1001 1000
1001 1000
1001 1000
1001 1000
1001 1000
1001 1000
1001 1000
1001 1000
1001 1000
1001 1000
1001 1000
1001 1000
1001 1000
1001 1000
1001 1000
1001 1000
1001 1000
1001 1000
1001 1000
1001 1000
1001 1000
1001 1000
1001 1000
1001 1000
1001 1000
1001 1000
1001 1000
1001 1000
1001 1000
1001 1000
1001 1000
1001 1000
1001 1000
1001 1000
1001 1000
1001 1000
1001 1000
1001 1000
1001 1000
1001 1000
1001 1000
1001 1000
1001 1000
1001 1000
1001 1000
1001 1000
1001 1000
1001 1000
1001 1000
1001 1000
1001 1000
1001 1000
1001 1000
1001 1000
1001 1000
1001 1000
1001 1000
1001 1000
1001 1000
1001 1000
1001 1000
1001 1000
1001 1000
1001 1000
1001 1000
1001 1000
1001 1000
1001 1000
1001 1000
1001 1000
1001 1000
1001 1000
1001 1000
1001 1000
1001 1000
1001 1000
1001 1000
1001 1000
1001 1000
1001 1000
1001 1000
1001 1000
1001 1000
1001 1000
1001 1000
1001 1000
1001 1000
1001 1000
1001 1000
1001 1000
1001 1000
1001 1000
1001 1000
1001 1000
1001 1000
1001 1000
1001 1000
1001 1000
1001 1000
1001 1000
1001 1000
1001 1000
1001 1000
1001 1000
1001 1000
1001 1000
1001 1000
1001 1000
1001 1000
1001 1000
1001 1000
1001 1000
1001 1000
1001 1000
1001 1000
1001 1000
1001 1000
1001 1000
1001 1000
1001 1000
1001 1000
1001 1000
1001 1000
1001 1000
1001 1000
1001 1000
1001 1000
1001 1000
1001 1000
1001 1000
1001 1000
1001 1000
1001 1000
1001 1000
1001 1000
1001 1000
1001 1000
1001 1000
1001 1000
1001 1000
1001 1000
1001 1000
1001 1000
1001 1000
1001 1000
1001 1000
1001 1000
1001 1000
1001 1000
1001 1000
1001 1000
1001 1000
1001 1000
1001 1000
1001 1000
1001 1000
1001 1000
1001 1000
1001 1000
1001 1000
1001 1000
1001 1000
1001 1000
1001 1000
1001 1000
1001 1000
1001 1000
1001 1000
1001 1000
1001 1000
1001 1000
1001 1000
1001 1000
1001 1000
1001 1000
1001 1000
1001 1000
1001 1000
1001 1000
1001 1000
1001 1000
1001 1000
1001 1000
1001 1000
1001 1000
1001 1000
1001 1000
1001 1000
1001 1000
1001 1000
1001 1000
1001 1000
1001 1000
1001 1000
1001 1000
1001 1000
1001 1000
1001 1000
1001 1000
1001 1000
1001 1000
1001 1000
1001 1000
1001 1000
1001 1000
1001 1000
1001 1000
1001 1000
1001 1000
1001 1000
1001 1000
1001 1000
1001 1000
1001 1000
1001 1000
1001 1000
1001 1000
1001 1000
1001 1000
1001 1000
1001 1000
1001 1000
1001 1000
1001 1000
1001 1000
1001 1000
1001 1000
1001 1000
1001 1000
1001 1000
1001 1000
1001 1000
1001 1000
1001 1000
1001 1000
1001 1000
1001 1000
1001 1000
1001 1000
1001 1000
1001 1000
1001 1000
1001 1000
1001 1000
1001 1000
1001 1000
1001 1000
1001 1000
1001 1000
1001 1000
1001 1000
1001 1000
1001 1000
1001 1000
1001 1000
1001 1000
1001 1000
1001 1000
1001 1000
1001 1000
1001 1000
1001 1000
1001 1000
1001 1000
1001 1000
1001 1000
1001 1000
1001 1000
1001 1000
1001 1000
1001 1000
1001 1000
1001 1000
1001 1000
1001 1000
1001 1000
1001 1000
1001 1000
1001 1000
1001 1000
1001 1000
1001 1000
1001 1000
1001 1000
1001 1000
1001 1000
1001 1000
1001 1000
1001 1000
1001 1000
1001 1000
1001 1000
1001 1000
1001 1000
1001 1000
1001 1000
1001 1000
1001 1000
1001 1000
1001 1000
1001 1000
1001 1000
1001 1000
1001 1000
1001 1000
1001 1000
1001 1000
1001 1000
1001 1000
1001 1000
1001 1000
1001 1000
1001 1000
1001 1000
1001 1000
1001 1000
1001 1000
1001 1000
1001 1000
1001 1000
1001 1000
1001 1000
1001 1000
1001 1000
1001 1000
1001 1000
1001 1000
1001 1000
1001 1000
1001 1000
1001 1000
1001 1000
1001 1000
1001 1000
1001 1000
1001 1000
1001 1000
1001 1000
1001 1000
1001 1000
1001 1000
1001 1000
1001 1000
1001 1000
1001 1000
1001 1000
1001 1000
1001 1000
1001 1000
1001 1000
1001 1000
1001 1000
1001 1000
1001 1000
1001 1000
1001 1000
1001 1000
1001 1000
1001 1000
1001 1000
1001 1000
1001 1000
1001 1000
1001 1000
1001 1000
1001 1000
1001 1000
1001 1000
1001 1000
1001 1000
1001 1000
1001 1000
1001 1000
1001 1000
1001 1000
1001 1000
1001 1000
1001 1000
1001 1000
1001 1000
1001 1000
1001 1000
1001 1000
1001 1000
1001 1000
1001 1000
1001 1000
1001 1000
1001 1000
1001 1000
1001 1000
1001 1000
1001 1000
1001 1000
1001 1000
1001 1000
1001 1000
1001 1000
1001 1000
1001 1000
1001 1000
1001 1000
1001 1000
1001 1000
1001 1000
1001 1000
1001 1000
1001 1000
1001 1000
1001 1000
1001 1000
1001 1000
1001 1000
1001 1000
1001 1000
1001 1000
1001 1000
1001 1000
1001 1000
1001 1000
1001 1000
1001 1000
1001 1000
1001 1000
1001 1000
1001 1000
1001 1000
1001 1000
1001 1000
1001 1000
1001 1000
1001 1000
1001 1000
1001 1000
1001 1000
1001 1000
1001 1000
1001 1000
1001 1000
1001 1000
1001 1000
1001 1000
1001 1000
1001 1000
1001 1000
1001 1000
1001 1000
1001 1000
1001 1000
1001 1000
1001 1000
1001 1000
1001 1000
1001 1000
1001 1000
1001 1000
1001 1000
1001 1000
1001 1000
1001 1000
1001 1000
999 1000
